p cnf 150 210
41 53 -40 0
13 132 140 0
141 123 17 0
-134 113 12 0
-10 69 84 0
57 91 -111 0
90 -131 73 0
132 5 -109 0
-141 -7 140 0
-36 -103 -73 0
20 36 102 0
-77 -91 -117 0
128 31 55 0
-98 -150 -88 0
129 150 -103 0
107 93 -34 0
138 -116 -141 0
-136 45 134 0
21 -74 67 0
96 14 -115 0
-97 -43 -99 0
117 19 93 0
-147 -113 -139 0
29 -66 -5 0
124 29 33 0
16 -149 -34 0
-149 124 -62 0
123 -48 10 0
131 -88 -96 0
62 -133 -5 0
11 95 -82 0
-111 -144 125 0
-29 -107 -93 0
19 3 52 0
80 103 -11 0
127 -25 32 0
42 124 122 0
10 -111 14 0
68 109 142 0
-140 -123 -113 0
-123 45 5 0
-139 131 60 0
129 34 33 0
-142 -113 87 0
6 128 50 0
-49 -34 -131 0
-36 81 -99 0
-25 -146 -112 0
3 33 70 0
-2 -45 108 0
-22 -146 97 0
-145 129 113 0
19 144 38 0
127 31 -69 0
-65 55 71 0
127 99 -114 0
-13 149 80 0
-8 105 122 0
59 116 67 0
22 -42 -61 0
-50 -36 -68 0
-91 42 1 0
108 4 49 0
97 -79 -46 0
36 149 -126 0
-125 -142 -29 0
-123 132 -139 0
19 -15 101 0
-8 -7 -68 0
13 -88 -124 0
-91 -1 9 0
105 126 97 0
104 98 -135 0
110 141 67 0
-41 -14 -140 0
-63 -96 46 0
56 -79 -76 0
91 34 10 0
-14 -129 85 0
60 -45 121 0
98 81 48 0
27 -137 -28 0
27 5 65 0
9 28 144 0
-69 -5 123 0
134 22 -138 0
13 -91 22 0
50 40 7 0
39 56 -129 0
56 -103 134 0
-112 132 -45 0
4 -126 39 0
149 119 46 0
-144 -115 -9 0
-46 -11 -137 0
-132 133 -55 0
77 118 -84 0
92 -5 76 0
-54 -43 -67 0
-69 -9 -72 0
146 -52 -111 0
84 131 -109 0
-132 51 39 0
-124 -38 34 0
-27 10 84 0
42 -91 -9 0
-149 -102 25 0
-67 102 -23 0
19 -149 41 0
68 -94 136 0
13 95 71 0
-143 106 49 0
-26 108 -22 0
16 -11 -126 0
108 83 20 0
95 68 -118 0
-13 -124 42 0
-13 143 26 0
116 -45 122 0
27 102 -7 0
110 40 103 0
120 -150 24 0
-107 -110 -103 0
17 -85 -146 0
-15 61 145 0
52 -104 35 0
-143 145 -35 0
-78 20 -95 0
-91 89 116 0
4 8 -146 0
27 103 -51 0
126 -149 79 0
44 145 61 0
11 -109 -37 0
98 146 111 0
-95 44 67 0
17 69 101 0
117 105 -5 0
-5 127 -96 0
-61 23 73 0
34 71 1 0
-54 -79 145 0
-37 148 132 0
76 -1 54 0
132 126 11 0
-127 -139 122 0
22 -44 81 0
-137 86 -48 0
-49 131 -60 0
-75 -58 131 0
x -2 -4 6 8 12 -14 15 -21 -22 -25 27 -28 40 41 -42 -43 44 47 50 -53 57 59 -60 -62 -63 64 -66 67 68 69 70 73 77 78 79 81 86 -90 -92 93 95 96 97 -98 -103 -107 108 112 113 -116 117 118 -119 -123 -126 -127 -129 131 -132 -134 -136 140 142 143 -144 145 146 0
x -1 -3 7 -9 -15 17 18 -19 22 -25 26 -27 -28 29 34 -36 38 40 -41 43 44 46 -51 52 -53 -55 -56 57 -58 61 63 64 65 -69 70 -74 82 83 -85 -86 89 -95 -99 -102 -105 -106 107 109 110 113 -114 -115 -120 -121 -123 -124 -125 -126 130 131 137 141 142 145 148 149 -150 0
x -2 3 4 5 -8 10 -13 15 17 -20 -23 -27 -29 -30 -34 -35 37 38 42 43 -44 46 -47 -49 54 55 58 59 -60 62 64 65 -66 67 70 -71 73 -75 76 -77 -80 81 -82 -85 -86 -87 90 91 92 -95 96 -97 -99 -100 103 106 -107 -112 -113 114 116 117 118 119 122 124 125 126 128 129 134 -135 -137 -138 139 -140 -141 146 150 0
x -3 6 -8 9 10 -12 15 17 -21 -22 23 28 -31 32 33 -35 38 40 -41 42 44 45 -46 47 -48 -51 54 55 -56 -60 61 65 66 69 -70 -74 76 81 -85 87 90 94 -95 -96 -98 -99 100 -101 -106 109 -111 -114 -115 116 -117 119 -120 121 124 125 -128 129 132 133 -134 136 -137 138 -139 141 -142 144 145 -146 -149 -150 0
x 1 -6 -9 11 -15 -17 -18 -26 -27 29 30 -31 -32 33 35 -36 -37 38 39 -40 -43 -44 46 47 -49 -52 -54 -59 -60 -62 63 65 68 70 74 75 -81 82 -85 -87 -88 -90 91 92 -93 -94 99 100 102 104 -108 -110 115 118 -119 -120 -122 125 126 128 -130 132 133 134 136 -137 -139 142 -145 147 149 -150 0
x 1 2 3 4 -10 12 13 14 -15 19 -20 -21 22 23 -25 -26 27 -29 -31 33 -34 -36 -39 43 -44 49 -53 54 57 58 59 -60 -61 62 64 65 -67 -68 70 -72 -73 -75 -76 79 -81 82 -83 84 -87 88 -90 -91 -92 94 98 99 100 -101 102 103 -104 106 -107 109 112 -116 -118 -119 -121 127 -129 -131 -139 141 -142 -146 -148 -149 150 0
x 2 3 4 7 8 -12 -17 -18 28 -30 33 -34 -36 -38 40 41 42 43 44 -45 -46 52 -58 59 -60 -62 -63 66 69 -71 -72 -76 77 84 85 87 89 -90 91 -92 93 -95 -96 98 100 101 103 104 107 108 -110 113 -114 -115 -116 120 -124 126 -128 -130 -135 -137 -142 -143 -144 145 149 150 0
x -2 4 -6 -7 -9 -14 15 -16 -17 -18 -20 -22 -23 24 -27 -33 34 -38 41 44 -48 51 -52 53 -54 55 58 -62 64 65 67 68 71 75 76 77 78 79 81 87 -88 91 -94 -95 -96 99 100 101 -102 -104 -106 107 -109 111 112 -113 -114 -118 121 -123 127 129 -132 134 -140 -141 142 -143 -146 147 149 150 0
x -2 -3 -9 10 -11 12 -13 -15 -18 19 21 23 -24 -26 28 32 33 -36 -37 -38 39 -42 45 -46 47 48 -49 50 -57 -58 -59 -62 -64 71 72 -74 78 -79 -81 -82 84 -87 90 91 -93 -94 95 96 -98 104 -107 109 -110 -117 -122 123 124 -125 -126 128 131 -132 -133 -135 136 139 142 143 -145 146 147 149 150 0
x -1 -2 -5 8 9 11 -12 -19 -20 23 24 -26 -28 -32 35 -38 -40 41 -43 -44 46 47 -48 49 -51 53 -54 -55 -56 62 -63 64 -65 66 -70 -72 74 -77 -79 -80 -82 -83 84 85 -88 91 -92 -94 96 -99 100 102 104 -105 -106 -107 -108 -110 -111 113 -116 -117 118 -121 -123 124 -125 -126 127 128 -129 -130 -131 134 137 -139 143 147 -149 0
x -2 -5 -6 -9 10 -12 -13 -14 16 17 22 -24 -27 28 29 -30 34 -37 -38 -42 43 44 45 46 -47 -49 51 -54 -58 59 -60 61 -62 71 74 -75 76 -77 -79 80 -81 -83 85 86 -88 91 -92 93 94 -96 -97 -108 110 -114 115 -116 121 122 124 127 129 -130 131 -133 -134 -141 142 143 -145 148 0
x -1 -2 3 5 6 10 11 -13 18 -24 26 28 -30 32 -33 -35 -38 -40 -44 46 47 -50 -52 53 -54 61 -62 63 64 66 -67 -68 70 -71 -72 73 74 79 -83 84 -85 86 87 88 89 92 94 -95 98 -100 -104 -105 106 -108 109 -111 112 -116 119 120 -123 124 126 -127 -128 130 -132 133 -135 -138 140 -141 142 -149 -150 0
x -2 -3 4 -5 7 9 12 13 -14 -15 -16 -18 24 25 -27 -28 33 37 40 -41 -43 46 49 -50 -54 55 -56 59 -60 61 -62 63 67 -68 -72 75 -78 -79 80 81 82 87 -88 -93 -96 97 99 100 -101 102 104 -106 -108 110 112 113 -117 -122 124 126 -127 128 130 131 -136 -138 139 142 143 146 147 -149 150 0
x 1 -2 -3 -4 -7 -8 -9 -12 13 -15 17 20 22 24 -26 28 29 -33 -34 36 38 39 -40 42 -44 -45 47 -48 50 -51 -52 -53 54 55 -56 58 -63 64 65 -67 -69 -70 -75 76 -77 -79 81 -82 83 -85 -87 88 -89 -91 92 94 95 97 -98 -99 -103 108 -111 112 -114 115 -116 -118 121 -127 -129 -130 133 135 -136 -139 140 -142 -143 145 -146 147 149 0
x 2 3 -4 -5 6 8 9 -16 -17 19 -21 -23 -26 30 -31 33 -34 -38 -41 45 46 -53 -59 60 61 66 -67 68 69 -72 74 -77 80 -81 -82 -83 -88 -91 93 95 -96 97 -98 102 -103 -104 -105 106 109 110 111 -112 116 117 119 -120 -121 122 -123 -125 127 128 131 -132 -133 -134 -135 -137 138 -142 -146 -149 150 0
x -1 -2 -3 4 -8 -9 -11 12 -14 -16 22 23 -26 27 -29 31 39 -40 -41 42 44 46 -48 49 52 56 57 -59 60 -61 -62 -66 68 71 -74 76 -80 81 85 86 89 -91 92 -93 -94 95 99 102 103 105 106 112 114 115 -117 -118 -119 -125 126 128 129 131 -133 134 -135 136 -138 -139 -141 -145 -147 149 0
x -3 -4 -5 -10 11 13 -15 16 17 -24 25 -26 27 -28 29 -35 36 -37 42 -44 -45 -46 50 51 -52 53 54 -55 -56 59 -61 -65 66 67 69 -71 72 -73 -77 79 -80 81 -83 84 86 88 90 91 -92 94 -95 96 -101 104 -105 -108 111 112 114 116 120 -121 -122 -124 -125 -126 127 128 -130 131 139 -143 -144 -146 -148 149 0
x 1 -3 5 8 10 -12 -13 16 17 18 -20 -21 -22 25 28 -29 35 -36 37 -38 -39 41 -42 44 -45 -47 -50 51 57 -58 59 -60 61 62 -63 -64 65 66 -67 69 70 -80 81 -84 -86 -87 89 90 -94 -95 -96 -97 99 102 -103 104 -108 110 -111 112 -114 -116 117 -122 -125 127 128 129 -130 -132 135 136 -137 -138 -139 -142 -144 147 -148 -150 0
x 2 -4 5 7 -8 10 -11 12 -16 -17 18 -19 20 -23 26 28 -30 -33 -34 37 -39 40 -41 -44 -48 -49 50 -54 58 62 64 -70 -71 -72 -75 -82 83 86 87 -89 -91 92 93 95 97 -98 99 100 102 104 -107 -109 115 116 117 -121 127 -128 -132 -134 135 -136 -139 -140 -141 142 146 -147 150 0
x 1 -5 -7 10 -14 17 -23 24 -25 28 -29 -30 33 35 -37 38 -39 40 41 42 -43 -44 -45 48 -50 52 -54 -56 -57 -58 59 64 -66 -69 70 -79 -83 -84 86 -87 -88 -89 92 95 -96 98 100 -103 104 105 107 -108 -109 -111 -112 -114 117 -119 121 -122 -123 -124 -125 -129 131 133 136 138 -139 -140 147 148 149 0
x -2 6 8 9 10 -11 -12 -13 -16 17 18 20 -21 -27 -28 -29 -30 33 34 37 38 39 -42 -44 47 48 -52 -53 54 -55 56 -60 61 63 -64 -66 -69 -70 71 -72 -73 -76 77 79 -80 -81 -82 -84 -87 -88 89 -91 -93 95 -98 -100 -101 106 107 108 -109 110 111 -112 115 116 119 127 128 -129 -130 131 134 135 -136 140 142 -144 -146 148 149 0
x -1 2 -3 6 -9 11 13 19 -20 21 25 -26 27 30 -31 -33 35 -36 38 -39 43 45 46 -49 -50 -54 -56 59 -60 62 -63 -65 70 72 -73 75 76 77 80 -88 -90 92 -93 -94 -95 98 -99 -100 103 106 108 -110 -112 -114 -115 -117 -119 -120 121 -123 -124 -125 128 130 133 134 136 140 142 -143 -147 -148 150 0
x 1 3 4 -5 6 -8 9 -13 17 -20 -21 23 -24 27 -38 41 48 -50 52 53 54 55 -62 -65 66 -73 -76 81 82 85 -86 -88 -89 -90 92 93 -94 97 98 -100 -104 107 -108 109 -110 -114 117 -119 -122 123 124 -128 -130 -131 134 135 138 141 -142 -143 -144 145 149 0
x 3 4 -6 8 -10 -13 -24 26 28 29 -31 32 35 -38 -39 42 44 -45 48 53 -56 60 65 68 -69 -71 72 -75 76 -78 80 -84 87 -90 -92 -93 97 99 102 106 113 -115 -119 121 123 124 -125 126 -128 -135 -139 142 -144 146 147 -148 0
x -1 7 -13 -14 15 16 -17 19 20 21 -24 25 27 28 30 -31 32 33 34 -39 40 42 -44 -45 -48 49 50 51 52 -55 56 58 60 61 62 -63 -64 -65 -66 -70 72 73 -74 76 78 82 -84 -85 87 89 90 91 -92 94 -98 -100 102 -103 -104 107 109 -114 115 116 118 122 -127 128 131 132 -133 -136 138 -141 142 143 -144 146 148 149 -150 0
x 2 3 -5 9 -11 12 14 15 -16 19 -22 -23 24 -25 -26 -27 28 29 32 -34 -36 -38 -40 -43 -47 -50 -51 -55 57 -59 -60 61 66 67 -68 -69 71 72 -76 77 78 -79 -80 -83 85 -88 89 91 96 -97 -100 101 103 -105 106 -111 122 -124 -126 -129 132 -135 137 -138 -139 -140 145 146 149 -150 0
x 5 -6 -7 -8 -9 10 -11 12 14 15 -16 -17 19 -20 -21 22 -24 25 26 27 -30 -31 34 -35 -39 -40 41 -43 44 46 47 50 52 53 -54 58 63 -64 65 67 -68 -69 70 73 -75 80 81 83 -86 -87 -90 -95 -103 109 -110 -111 112 -114 116 118 -119 121 -122 124 -125 -126 -128 -131 -133 -136 137 -142 -144 148 0
x 1 2 3 -5 -9 -12 13 -20 22 -24 -28 30 -31 -35 -36 -37 38 39 45 -46 48 49 -52 -53 54 -59 -61 -64 65 70 -71 72 73 74 76 -80 81 82 85 -87 -88 -92 95 -96 -100 -101 102 -103 104 105 106 107 113 -114 116 -118 -122 -123 125 -128 -131 -132 -133 -134 -136 138 -139 -140 -143 144 -145 -146 -149 0
x -4 5 -6 -11 -12 14 -18 -20 -21 22 -25 -28 -29 30 -31 34 35 -36 37 38 -42 45 -48 52 -54 -55 56 -57 -60 62 64 65 66 67 71 74 76 78 -79 -82 -83 -86 -88 90 91 93 94 -96 99 -100 -101 102 -103 104 -106 108 109 112 -114 115 -116 117 -118 120 121 -123 124 -125 126 129 -130 -132 -133 -136 -140 -142 -143 144 -148 -149 0
x -1 3 5 -6 7 -8 9 11 12 13 -14 17 20 21 -24 -25 -29 -31 -35 37 -38 -39 41 42 -45 46 47 51 53 -56 58 -59 -61 -63 64 -65 66 67 -70 -72 -74 -81 -82 84 85 88 89 -91 94 98 -99 -100 105 -111 112 113 116 118 126 -128 -133 134 136 -139 -141 -144 -149 0
x 1 4 -5 -9 -10 -11 12 -15 17 -20 -22 -24 25 27 -33 35 -37 41 -42 43 44 46 47 51 55 -57 -58 60 -62 64 -67 -68 71 72 -79 82 -86 -89 -92 -93 94 95 96 98 -99 102 -103 104 -106 107 109 112 113 -114 -116 119 120 -122 -125 -126 -127 128 -129 -131 132 -133 139 -140 -141 144 145 -150 0
x 2 -3 -7 9 -13 14 -16 -17 19 -22 27 -29 -35 37 39 43 -50 -52 -53 -56 -58 -59 -60 -61 62 -63 64 -65 67 72 75 77 -84 85 87 -89 91 -94 -95 -97 -98 -101 -102 -106 108 110 -111 -116 -117 -120 121 122 -124 126 -130 -132 -133 -138 -139 141 -143 144 145 -150 0
x 5 -6 7 -10 -13 14 -16 -17 22 -24 25 26 -29 31 -32 34 36 37 39 41 -46 47 52 -54 -60 -61 62 -63 66 67 -69 72 -75 78 -80 81 -83 -86 -87 89 -91 -94 96 -100 101 -102 -106 -107 110 111 -112 117 120 121 -123 124 -125 126 128 -129 -131 133 134 -137 -138 140 142 -144 145 -147 -150 0
x -2 8 -11 -12 13 18 -20 -22 -23 -26 28 35 -39 -40 -42 -43 -44 -45 -46 49 -51 52 53 -55 57 58 -61 62 67 -68 -69 -74 76 -79 -80 81 82 -84 85 86 -88 -89 -90 -92 94 96 -99 100 101 104 106 -108 -109 -110 -113 114 -117 -118 120 -123 127 -128 -129 -130 131 132 -133 -137 138 -140 -141 -142 -143 146 0
x 3 4 7 -8 -15 18 -19 22 28 -30 33 -34 -35 -39 -41 42 -43 -44 45 46 47 -48 -49 -50 -51 54 -55 57 58 -59 60 -62 -63 -68 70 74 -76 -80 -81 -83 86 -90 93 95 97 -99 -103 104 106 108 -109 -111 112 -113 115 -116 118 130 -131 -132 -134 -135 -138 -139 140 -141 143 146 149 -150 0
x 5 7 8 -11 -15 16 17 -20 21 -24 -25 27 -30 31 -32 35 -37 43 45 47 48 -50 -55 -56 -57 58 -59 -60 -61 -62 64 67 -69 -72 73 75 78 79 80 81 -82 -83 -85 -86 87 90 91 -92 93 -95 -97 99 100 -104 -107 108 111 115 -116 -117 119 121 122 123 -126 128 133 -136 -140 141 -143 144 -146 -148 149 150 0
x -7 -8 -11 12 13 -15 16 17 18 -19 -20 -22 23 -24 25 27 28 31 -34 -35 37 41 44 45 46 50 -51 -52 54 -56 59 60 -61 62 -65 -67 69 70 71 -72 74 75 78 -81 -82 -83 87 -89 92 -93 98 -99 -102 103 104 105 106 -107 116 -118 121 123 -124 128 -131 135 -137 138 139 -140 141 -144 145 146 -148 149 0
x 1 3 -4 -6 -7 10 11 -13 -14 15 16 17 18 20 24 -25 26 27 28 30 -31 -32 -35 36 -37 39 -41 -42 -44 45 46 48 49 50 -55 -57 59 63 65 -68 69 -72 -74 -75 77 78 85 87 88 89 -91 92 93 -94 95 -96 -97 -99 -101 103 -104 -107 112 -114 115 120 -121 122 -123 124 127 -128 -130 133 -134 135 138 140 -142 -143 -145 -146 149 0
x -1 2 -3 -6 7 9 11 -16 17 18 -20 -21 -25 26 -27 28 33 -34 -35 -39 41 -42 44 -46 48 51 52 -53 54 -55 56 -57 58 59 61 -62 63 -64 67 -68 -69 -70 -71 72 -73 81 82 -83 -85 86 -87 -88 89 -90 92 93 95 -96 -97 101 103 105 106 108 109 110 -111 112 -113 -115 -119 121 -122 123 124 -125 126 -129 -131 -132 134 137 138 141 -142 -143 144 145 146 -147 149 0
x -2 3 -5 6 -8 -10 -12 13 14 15 17 -20 -21 -22 -23 -27 -28 -29 -31 33 34 -35 -39 42 44 45 -46 -47 48 -50 -51 -52 -61 -62 -63 -66 68 -70 -71 72 -74 -76 -77 -78 -79 -81 82 83 -84 85 -87 -88 91 93 -96 -100 -101 104 -105 106 -108 -116 -118 123 124 -125 -127 -130 134 135 -138 140 -142 143 147 148 0
x -4 6 -7 8 10 -13 -14 -15 -16 17 20 23 -24 27 31 33 -35 36 -37 -38 45 -46 -49 -51 -52 -54 -55 56 -59 -61 62 -66 69 -72 73 74 -80 81 82 -83 84 86 -88 91 94 -95 -96 -102 103 104 105 106 -107 -109 110 -112 113 -118 -119 -122 123 -124 125 -126 -128 129 -132 134 136 138 140 143 149 0
x 1 -2 3 4 6 -12 -13 18 19 20 -21 22 -24 -25 26 28 29 -31 32 -33 34 35 -37 -40 41 -42 -48 -49 -51 -52 55 -56 57 -58 -63 67 68 69 74 76 77 -80 83 89 91 93 100 102 -105 106 107 108 110 112 -113 -116 -117 -119 120 121 -122 -123 126 129 131 -133 -137 -138 -141 143 145 -147 149 150 0
x -1 -4 -5 7 10 -12 -17 -19 -22 24 25 26 27 -32 35 40 -41 -42 44 48 -52 -53 -55 56 58 -62 -63 65 66 71 -72 74 -76 79 -83 -84 85 87 89 -94 -97 -99 100 103 -105 107 109 -111 -115 -116 117 -119 120 121 -124 128 131 -132 133 135 -136 139 140 -143 -144 145 146 148 150 0
x -2 -3 -4 -8 9 -10 14 -16 19 22 -23 -29 -30 -31 36 -40 42 44 45 -46 -47 48 -50 -55 58 59 -61 64 -65 -66 -68 -69 -70 -74 75 76 -80 -82 -83 -84 -87 88 89 -90 92 -93 -94 97 98 99 -103 105 107 109 -110 -111 112 -113 115 116 117 -118 119 121 123 -124 125 127 128 -130 -133 137 138 -141 142 -144 -145 -149 0
x 1 3 9 -10 12 14 -15 -16 -18 20 -21 -22 -23 -28 31 32 36 -37 39 40 41 43 47 49 50 -51 -53 54 -56 57 -61 -65 66 69 -70 -71 -72 -74 75 84 88 93 -94 -95 -96 99 105 106 -108 109 -110 111 112 -114 -115 -118 -121 123 124 -127 -128 -130 131 132 134 -137 -140 -142 -143 -145 -147 148 -149 0
x -2 -4 -6 -7 8 9 12 -14 16 17 -18 -19 20 25 -29 32 33 34 -35 -36 37 -38 42 47 -48 49 -51 -53 -55 56 -63 -64 65 -67 69 -71 72 73 -74 76 77 -78 81 -82 -83 86 87 92 101 -104 -105 -106 109 -114 -116 -117 -118 -119 121 122 123 127 129 134 -135 136 -137 138 139 -140 -141 -142 143 144 148 150 0
x 5 -10 -11 12 16 -20 -22 -23 26 28 -30 32 -34 -36 38 -39 -40 41 42 -43 44 45 -46 53 -54 -55 56 -57 -58 -59 -63 69 71 -72 -73 74 -78 81 -84 85 -87 88 -95 97 -99 -100 102 -103 104 -105 -106 109 116 117 -120 -124 -126 128 -132 -133 -134 -136 137 138 -139 140 141 -143 144 -146 147 148 149 0
x 2 -3 5 -10 11 -12 -13 14 -16 -19 21 -22 -24 -27 28 -29 30 -32 -35 36 37 38 41 42 -45 -47 -49 -50 -53 -55 -56 -58 59 60 62 -65 67 68 -69 70 -72 73 -74 -75 -76 82 -83 84 87 88 -91 -93 -95 96 -97 -98 99 -102 -107 -108 109 -112 115 116 119 -121 123 -124 129 131 -132 133 139 142 143 -145 -146 -147 -148 -149 150 0
x 1 -2 5 -6 -10 -11 -12 -14 -15 -17 18 -19 20 -22 -23 24 -27 -28 29 31 32 -35 -37 -40 42 -43 -44 -47 -49 -50 -51 52 54 -56 -57 58 60 -61 -64 65 67 -70 -72 75 -77 -78 -80 -81 -82 -85 88 89 90 91 -93 -95 -96 98 99 -100 -101 -104 -106 107 -108 110 111 -112 -113 115 -117 -119 120 -121 -123 -124 -129 -131 132 134 -135 136 -137 139 140 -143 -149 0
x -1 5 -7 8 -9 -10 -14 -15 16 -18 19 20 -21 23 24 -29 30 -32 -35 -37 39 -40 -43 46 47 48 -49 -54 56 61 -62 63 64 -65 70 -71 -75 76 77 -80 -82 84 85 86 88 -91 -94 -96 98 -99 101 -104 105 108 111 113 -115 -116 -118 119 -120 -121 122 126 127 130 -131 133 134 137 138 -139 143 -145 -149 150 0
x -2 -3 -5 6 -10 -12 -13 -16 20 23 26 -28 29 -30 -31 -32 -33 35 36 38 41 -47 48 49 50 51 52 -53 -57 59 61 62 -64 -65 67 -70 72 -74 -78 -79 80 -81 -85 86 87 90 -92 -93 95 -98 99 -101 -102 103 -104 106 107 -109 -110 115 116 -117 -119 120 -123 -125 126 128 129 136 -137 138 139 145 -149 -150 0
x -1 2 3 4 -5 7 10 -11 12 -13 -15 -21 -22 -24 -28 30 -32 -33 -38 39 40 45 46 47 -51 52 54 55 -58 59 60 -62 63 64 66 67 70 -73 76 -79 -81 82 84 90 92 -94 -95 97 101 -102 -105 108 109 112 114 116 -117 -119 -123 -124 -125 -128 -132 -135 -138 140 143 -144 -145 -146 -148 -149 0
x -2 -8 10 11 -12 -16 17 -18 19 24 -28 -31 -33 -35 -36 -38 39 42 -44 -45 -47 49 50 -55 -58 -60 61 63 -65 66 69 -70 -75 -78 79 -80 81 -84 85 87 -88 89 95 -98 -99 103 104 106 109 111 -112 -113 -114 -116 118 -120 -121 -126 127 -128 -130 -132 133 -135 -136 139 143 -144 145 -146 -149 0
x 3 6 7 -9 17 -18 -19 20 -22 -24 25 29 -31 32 -33 34 37 -38 -41 -46 -47 -49 -52 53 -58 -60 -63 -64 -65 -67 -71 -73 74 -75 -77 -82 85 -86 -87 -93 -95 96 99 -101 -104 -107 -108 -109 111 112 116 120 121 -124 126 -129 130 -131 -132 134 138 -141 -144 -146 -149 0
x 2 -3 -5 6 7 -10 12 15 16 -17 18 -19 20 22 -23 26 -29 31 33 -34 -35 -36 -37 -38 43 44 46 -48 -52 -53 -54 55 -56 57 -58 -61 -62 -64 -65 -66 68 69 70 -73 -74 -76 78 80 81 82 83 84 -85 87 -89 90 -91 -93 -100 -101 102 -104 -109 -111 -113 -115 -116 -117 121 126 -127 -132 137 -138 -140 -142 144 145 -146 149 150 0
x 6 -7 8 9 11 -12 13 15 -17 -20 -22 -23 -24 -26 -29 30 31 -32 -33 -38 39 -40 41 50 52 53 -56 -59 61 -63 -66 -68 -70 -71 72 -77 81 -82 -83 -84 -85 86 89 -90 -93 -94 -96 -99 -101 102 103 105 -106 108 109 113 -114 -115 -116 -118 119 -120 121 122 -124 125 130 -132 -133 134 -135 -137 -139 141 -142 143 -148 -149 -150 0
x -1 -2 -3 7 -9 10 -12 -14 17 19 20 -21 22 -23 25 -26 27 28 -29 34 37 -42 43 44 46 47 48 -49 -52 53 55 -56 -59 62 64 -65 66 -67 -68 70 71 72 73 -75 -76 -77 -78 -81 83 -86 88 89 -90 98 100 103 -107 -108 109 -110 -112 114 -115 -124 -125 130 133 -135 -140 141 144 -146 -147 148 -149 0
x 2 3 4 5 6 7 8 -9 -10 -11 16 19 -20 21 22 25 30 -33 34 -35 -37 38 -40 -41 -43 46 48 49 -50 -52 -54 56 -58 -59 60 63 -66 68 69 72 73 74 -75 -77 78 80 -82 -83 -84 -86 -89 91 92 -95 96 98 101 103 106 108 -110 112 113 115 116 -117 -118 -119 121 -123 -124 125 -126 128 129 -130 131 133 -134 -137 138 -140 145 -146 149 150 0
x -1 2 -8 12 13 -14 16 -18 21 22 -24 26 27 30 -36 -37 -39 -40 -42 44 -45 46 47 -48 51 -52 57 -59 -63 64 -66 -68 70 71 -72 -75 76 77 -78 80 81 -83 84 85 86 87 88 91 92 93 95 -96 -97 98 100 102 105 -106 -111 -113 -115 116 -118 -121 123 -124 -130 131 -132 -133 -135 136 -138 139 140 141 144 -145 -146 -147 148 150 0
x -3 6 9 13 14 -15 20 -24 26 27 -28 32 -37 39 41 42 43 48 51 54 55 56 57 -58 -60 -61 -63 -65 66 68 -69 71 72 73 74 75 -77 78 -80 -81 82 84 -85 -86 -89 90 92 -93 -94 95 96 -100 101 -102 105 -106 107 108 109 113 -116 117 119 120 -123 127 -128 131 -132 134 -138 142 143 144 -148 -149 0
